letting n =  10
letting blocks =  [[1, 3], [1, 5], [1, 6], [2, 2], [2, 3], [2, 8], [2, 10], [3, 4], [3, 5], [3, 6], [4, 9], [5, 3], [5, 5], [6, 2], [6, 3], [6, 9], [6, 10], [7, 3], [7, 8], [7, 9], [8, 2], [8, 4], [8, 6], [8, 7], [8, 8], [9, 2], [9, 4], [9, 5], [9, 7], [10, 5], [10, 6], [10, 10]]
